unknown
(model
; cardinality of BoundSet is 2
(declare-sort BoundSet 0)
; rep: @uc_BoundSet_0
; rep: @uc_BoundSet_1
; cardinality of UnboundSet is 1
(declare-sort UnboundSet 0)
; rep: @uc_UnboundSet_0
(define-fun a () UnboundSet @uc_UnboundSet_0)
(define-fun IsHispanic ((BOUND_VARIABLE_491 UnboundSet)) Bool true)
(define-fun IsWearingRedPlaidShirt ((BOUND_VARIABLE_496 BoundSet)) Bool true)
(define-fun WorksOnSewing ((BOUND_VARIABLE_496 BoundSet)) Bool true)
(define-fun IsWearing ((BOUND_VARIABLE_496 BoundSet)) Bool false)
(define-fun IsSewing ((BOUND_VARIABLE_496 BoundSet)) Bool false)
)
